179
0 168 141 148 13 97 170 71 27 26 
30 72 73 7 75 5 32 132 130 8 
94 38 171 42 174 80 138 151 159 39 
120 60 1 83 4 111 3 121 134 128 
9 155 65 167 98 28 16 82 14 53 
87 101 165 67 11 173 88 24 91 63 
143 35 166 157 117 29 112 6 152 33 
55 119 41 100 108 147 95 122 76 123 
81 79 51 153 149 84 31 110 54 68 
62 10 139 136 124 85 34 78 172 169 
25 177 161 92 102 103 142 12 118 135 
105 93 58 70 19 74 86 17 113 69 
144 163 48 158 164 115 133 2 64 150 
160 162 116 37 146 15 156 22 57 36 
44 47 114 137 77 50 46 140 21 61 
59 89 23 66 129 96 56 90 126 178 
45 109 52 131 107 106 20 40 175 18 
43 176 127 49 125 104 99 145 154 
